MAX: Total_Biomass;
Total_Biomass = Het_C.FinalMass + Aut_C.FinalMass + Met_C.FinalMass;
Het_C.InitialMass = 0.5;
Aut_C.InitialMass = 0.5;
Met_C.InitialMass = 0.5;
XOM_C.InitialMass = 0;
DOM_C.InitialMass = 1;
CH4_C.InitialMass = 0;
NH4_N.InitialMass = 0;
NO3_N.InitialMass = 0;
NO2_N.InitialMass = 0;
N2O_N.InitialMass = 0;
O2_O.InitialMass = 10;
SO4_S.InitialMass = 0;
CO2_C.InitialMass = 0;
N2_N.InitialMass = 0;
HS_S.InitialMass = 0;
Ox_O.InitialMass = 0;
Het_N.InitialMass = 0.150943396226415 Het_C.InitialMass;
Aut_N.InitialMass = 0.150943396226415 Aut_C.InitialMass;
Met_N.InitialMass = 0.150943396226415 Met_C.InitialMass;
XOM_N.InitialMass = 0.150943396226415 XOM_C.InitialMass;
DOM_N.InitialMass = 0.150943396226415 DOM_C.InitialMass;
Het_N.FinalMass = 0.150943396226415 Het_C.FinalMass;
Aut_N.FinalMass = 0.150943396226415 Aut_C.FinalMass;
Met_N.FinalMass = 0.150943396226415 Met_C.FinalMass;
XOM_N.FinalMass = 0.150943396226415 XOM_C.FinalMass;
DOM_N.FinalMass = 0.150943396226415 DOM_C.FinalMass;
-Inf < Het.RespEnergy <= 0;
-Inf < Aut.RespEnergy <= 0;
-Inf < Met.RespEnergy <= 0;
-Inf < HetAssimDOM.Energy <= 0;
-Inf < AutAssimCO2.Energy <= 0;
-Inf < MetAssimCH4.Energy <= 0;
-Inf < HetAssimNO3.Energy <= 0;
-Inf < AutAssimNO3.Energy <= 0;
-Inf < MetAssimNO3.Energy <= 0;
-Inf < HetAssimNO2.Energy <= 0;
-Inf < AutAssimNO2.Energy <= 0;
-Inf < MetAssimNO2.Energy <= 0;
-Inf < HetAssimNH4.Energy <= 0;
-Inf < AutAssimNH4.Energy <= 0;
-Inf < MetAssimNH4.Energy <= 0;
-Inf < CO2_C.FinalMass < +Inf;
-Inf < N2_N.FinalMass < +Inf;
-Inf < HS_S.FinalMass < +Inf;
-Inf < Ox_O.FinalMass < +Inf;
Het.RespEnergy = -2.83e-06 Het_C.FinalMass;
Aut.RespEnergy = -2.83e-06 Aut_C.FinalMass;
Met.RespEnergy = -2.83e-06 Met_C.FinalMass;
Het.Energy = HetAssimDOM.Energy + HetAssimNO3.Energy + HetAssimNO2.Energy + HetAssimNH4.Energy + HetAerobicofHet.Energy + HetAerobicofDOM.Energy + HetDenitStep1ofHet.Energy + HetDenitStep1ofDOM.Energy + HetDenitStep2ofHet.Energy + HetDenitStep2ofDOM.Energy + HetDenitStep3ofHet.Energy + HetDenitStep3ofDOM.Energy + HetSulfateRedofHet.Energy + HetSulfateRedofDOM.Energy + HetMethanogenesisofHet.Energy + HetMethanogenesisofDOM.Energy;
Aut.Energy = AutAssimCO2.Energy + AutAssimNO3.Energy + AutAssimNO2.Energy + AutAssimNH4.Energy + AutNitrifStep1.Energy + AutNitrifStep2.Energy;
Met.Energy = MetAssimCH4.Energy + MetAssimNO3.Energy + MetAssimNO2.Energy + MetAssimNH4.Energy + MetMethaneOxid.Energy;
0 = Het.RespEnergy + Het.Energy;
0 = Aut.RespEnergy + Aut.Energy;
0 = Met.RespEnergy + Met.Energy;
HetAssimDOM_DOM_C_Het_C.MassTrans = -0.000432 HetAssimDOM.Energy;
HetAssimDOM_DOM_N_Het_N.MassTrans = -0.002862 HetAssimDOM.Energy;
AutAssimCO2_CO2_C_Aut_C.MassTrans = -0.035 AutAssimCO2.Energy;
MetAssimCH4_CH4_C_Met_C.MassTrans = -0.00109 MetAssimCH4.Energy;
HetAssimNO3_NO3_N_Het_N.MassTrans = -0.000155 HetAssimNO3.Energy;
AutAssimNO3_NO3_N_Aut_N.MassTrans = -0.000155 AutAssimNO3.Energy;
MetAssimNO3_NO3_N_Met_N.MassTrans = -0.000155 MetAssimNO3.Energy;
HetAssimNO2_NO2_N_Het_N.MassTrans = -0.000125 HetAssimNO2.Energy;
AutAssimNO2_NO2_N_Aut_N.MassTrans = -0.000125 AutAssimNO2.Energy;
MetAssimNO2_NO2_N_Met_N.MassTrans = -0.000125 MetAssimNO2.Energy;
HetAssimNH4_NH4_N_Het_N.MassTrans = -3.18e-05 HetAssimNH4.Energy;
AutAssimNH4_NH4_N_Aut_N.MassTrans = -3.18e-05 AutAssimNH4.Energy;
MetAssimNH4_NH4_N_Met_N.MassTrans = -3.18e-05 MetAssimNH4.Energy;
HetAerobicofHet_Het_C_CO2_C.MassTrans = 0.37 HetAerobicofHet.Energy;
HetAerobicofHet_Het_N_NH4_N.MassTrans = 2.45125 HetAerobicofHet.Energy;
HetAerobicofHet_O2_O_Ox_O.MassTrans = 0.185 HetAerobicofHet.Energy;
HetAerobicofDOM_DOM_C_CO2_C.MassTrans = 0.37 HetAerobicofDOM.Energy;
HetAerobicofDOM_DOM_N_NH4_N.MassTrans = 2.45125 HetAerobicofDOM.Energy;
HetAerobicofDOM_O2_O_Ox_O.MassTrans = 0.185 HetAerobicofDOM.Energy;
HetDenitStep1ofHet_Het_C_CO2_C.MassTrans = 0.000288 HetDenitStep1ofHet.Energy;
HetDenitStep1ofHet_Het_N_NH4_N.MassTrans = 0.001908 HetDenitStep1ofHet.Energy;
HetDenitStep1ofHet_NO3_N_NO2_N.MassTrans = 0.000144 HetDenitStep1ofHet.Energy;
HetDenitStep1ofDOM_DOM_C_CO2_C.MassTrans = 0.000288 HetDenitStep1ofDOM.Energy;
HetDenitStep1ofDOM_DOM_N_NH4_N.MassTrans = 0.001908 HetDenitStep1ofDOM.Energy;
HetDenitStep1ofDOM_NO3_N_NO2_N.MassTrans = 0.000144 HetDenitStep1ofDOM.Energy;
HetDenitStep2ofHet_Het_C_CO2_C.MassTrans = 0.000415 HetDenitStep2ofHet.Energy;
HetDenitStep2ofHet_Het_N_NH4_N.MassTrans = 0.002749375 HetDenitStep2ofHet.Energy;
HetDenitStep2ofHet_NO2_N_N2O_N.MassTrans = 0.0002075 HetDenitStep2ofHet.Energy;
HetDenitStep2ofDOM_DOM_C_CO2_C.MassTrans = 0.000415 HetDenitStep2ofDOM.Energy;
HetDenitStep2ofDOM_DOM_N_NH4_N.MassTrans = 0.002749375 HetDenitStep2ofDOM.Energy;
HetDenitStep2ofDOM_NO2_N_N2O_N.MassTrans = 0.0002075 HetDenitStep2ofDOM.Energy;
HetDenitStep3ofHet_Het_C_CO2_C.MassTrans = 0.000645 HetDenitStep3ofHet.Energy;
HetDenitStep3ofHet_Het_N_NH4_N.MassTrans = 0.004273125 HetDenitStep3ofHet.Energy;
HetDenitStep3ofHet_N2O_N_N2_N.MassTrans = 0.00016125 HetDenitStep3ofHet.Energy;
HetDenitStep3ofDOM_DOM_C_CO2_C.MassTrans = 0.000645 HetDenitStep3ofDOM.Energy;
HetDenitStep3ofDOM_DOM_N_NH4_N.MassTrans = 0.004273125 HetDenitStep3ofDOM.Energy;
HetDenitStep3ofDOM_N2O_N_N2_N.MassTrans = 0.00016125 HetDenitStep3ofDOM.Energy;
HetSulfateRedofHet_Het_C_CO2_C.MassTrans = 3.8e-05 HetSulfateRedofHet.Energy;
HetSulfateRedofHet_Het_N_NH4_N.MassTrans = 0.00025175 HetSulfateRedofHet.Energy;
HetSulfateRedofHet_SO4_S_HS_S.MassTrans = 7.6e-05 HetSulfateRedofHet.Energy;
HetSulfateRedofDOM_DOM_C_CO2_C.MassTrans = 3.8e-05 HetSulfateRedofDOM.Energy;
HetSulfateRedofDOM_DOM_N_NH4_N.MassTrans = 0.00025175 HetSulfateRedofDOM.Energy;
HetSulfateRedofDOM_SO4_S_HS_S.MassTrans = 7.6e-05 HetSulfateRedofDOM.Energy;
HetMethanogenesisofHet_Het_C_CO2_C.MassTrans = 5.6e-05 HetMethanogenesisofHet.Energy;
HetMethanogenesisofHet_Het_C_CH4_C.MassTrans = 5.6e-05 HetMethanogenesisofHet.Energy;
HetMethanogenesisofHet_Het_N_NH4_N.MassTrans = 0.0001855 HetMethanogenesisofHet.Energy;
HetMethanogenesisofDOM_DOM_C_CO2_C.MassTrans = 5.6e-05 HetMethanogenesisofDOM.Energy;
HetMethanogenesisofDOM_DOM_C_CH4_C.MassTrans = 5.6e-05 HetMethanogenesisofDOM.Energy;
HetMethanogenesisofDOM_DOM_N_NH4_N.MassTrans = 0.0001855 HetMethanogenesisofDOM.Energy;
AutNitrifStep1_NH4_N_NO2_N.MassTrans = 0.0002745 AutNitrifStep1.Energy;
AutNitrifStep1_O2_O_Ox_O.MassTrans = 9.15e-05 AutNitrifStep1.Energy;
AutNitrifStep2_NO2_N_NO3_N.MassTrans = 7.4e-05 AutNitrifStep2.Energy;
AutNitrifStep2_O2_O_Ox_O.MassTrans = 7.4e-05 AutNitrifStep2.Energy;
MetMethaneOxid_CH4_C_CO2_C.MassTrans = 0.000818 MetMethaneOxid.Energy;
MetMethaneOxid_O2_O_Ox_O.MassTrans = 0.0002045 MetMethaneOxid.Energy;
Het_C.FinalMass = Het_C.InitialMass + HetAssimDOM_DOM_C_Het_C.MassTrans - HetAerobicofHet_Het_C_CO2_C.MassTrans - HetDenitStep1ofHet_Het_C_CO2_C.MassTrans - HetDenitStep2ofHet_Het_C_CO2_C.MassTrans - HetDenitStep3ofHet_Het_C_CO2_C.MassTrans - HetSulfateRedofHet_Het_C_CO2_C.MassTrans - HetMethanogenesisofHet_Het_C_CO2_C.MassTrans - HetMethanogenesisofHet_Het_C_CH4_C.MassTrans;
Het_N.FinalMass = Het_N.InitialMass + HetAssimDOM_DOM_N_Het_N.MassTrans + HetAssimNO3_NO3_N_Het_N.MassTrans + HetAssimNO2_NO2_N_Het_N.MassTrans + HetAssimNH4_NH4_N_Het_N.MassTrans - HetAerobicofHet_Het_N_NH4_N.MassTrans - HetDenitStep1ofHet_Het_N_NH4_N.MassTrans - HetDenitStep2ofHet_Het_N_NH4_N.MassTrans - HetDenitStep3ofHet_Het_N_NH4_N.MassTrans - HetSulfateRedofHet_Het_N_NH4_N.MassTrans - HetMethanogenesisofHet_Het_N_NH4_N.MassTrans;
Aut_C.FinalMass = Aut_C.InitialMass + AutAssimCO2_CO2_C_Aut_C.MassTrans;
Aut_N.FinalMass = Aut_N.InitialMass + AutAssimNO3_NO3_N_Aut_N.MassTrans + AutAssimNO2_NO2_N_Aut_N.MassTrans + AutAssimNH4_NH4_N_Aut_N.MassTrans;
Met_C.FinalMass = Met_C.InitialMass + MetAssimCH4_CH4_C_Met_C.MassTrans;
Met_N.FinalMass = Met_N.InitialMass + MetAssimNO3_NO3_N_Met_N.MassTrans + MetAssimNO2_NO2_N_Met_N.MassTrans + MetAssimNH4_NH4_N_Met_N.MassTrans;
XOM_C.FinalMass = XOM_C.InitialMass;
XOM_N.FinalMass = XOM_N.InitialMass;
DOM_C.FinalMass = DOM_C.InitialMass - HetAssimDOM_DOM_C_Het_C.MassTrans - HetAerobicofDOM_DOM_C_CO2_C.MassTrans - HetDenitStep1ofDOM_DOM_C_CO2_C.MassTrans - HetDenitStep2ofDOM_DOM_C_CO2_C.MassTrans - HetDenitStep3ofDOM_DOM_C_CO2_C.MassTrans - HetSulfateRedofDOM_DOM_C_CO2_C.MassTrans - HetMethanogenesisofDOM_DOM_C_CO2_C.MassTrans - HetMethanogenesisofDOM_DOM_C_CH4_C.MassTrans;
DOM_N.FinalMass = DOM_N.InitialMass - HetAssimDOM_DOM_N_Het_N.MassTrans - HetAerobicofDOM_DOM_N_NH4_N.MassTrans - HetDenitStep1ofDOM_DOM_N_NH4_N.MassTrans - HetDenitStep2ofDOM_DOM_N_NH4_N.MassTrans - HetDenitStep3ofDOM_DOM_N_NH4_N.MassTrans - HetSulfateRedofDOM_DOM_N_NH4_N.MassTrans - HetMethanogenesisofDOM_DOM_N_NH4_N.MassTrans;
CH4_C.FinalMass = CH4_C.InitialMass + HetMethanogenesisofHet_Het_C_CH4_C.MassTrans + HetMethanogenesisofDOM_DOM_C_CH4_C.MassTrans - MetAssimCH4_CH4_C_Met_C.MassTrans - MetMethaneOxid_CH4_C_CO2_C.MassTrans;
NH4_N.FinalMass = NH4_N.InitialMass + HetAerobicofHet_Het_N_NH4_N.MassTrans + HetAerobicofDOM_DOM_N_NH4_N.MassTrans + HetDenitStep1ofHet_Het_N_NH4_N.MassTrans + HetDenitStep1ofDOM_DOM_N_NH4_N.MassTrans + HetDenitStep2ofHet_Het_N_NH4_N.MassTrans + HetDenitStep2ofDOM_DOM_N_NH4_N.MassTrans + HetDenitStep3ofHet_Het_N_NH4_N.MassTrans + HetDenitStep3ofDOM_DOM_N_NH4_N.MassTrans + HetSulfateRedofHet_Het_N_NH4_N.MassTrans + HetSulfateRedofDOM_DOM_N_NH4_N.MassTrans + HetMethanogenesisofHet_Het_N_NH4_N.MassTrans + HetMethanogenesisofDOM_DOM_N_NH4_N.MassTrans - HetAssimNH4_NH4_N_Het_N.MassTrans - AutAssimNH4_NH4_N_Aut_N.MassTrans - MetAssimNH4_NH4_N_Met_N.MassTrans - AutNitrifStep1_NH4_N_NO2_N.MassTrans;
NO3_N.FinalMass = NO3_N.InitialMass + AutNitrifStep2_NO2_N_NO3_N.MassTrans - HetAssimNO3_NO3_N_Het_N.MassTrans - AutAssimNO3_NO3_N_Aut_N.MassTrans - MetAssimNO3_NO3_N_Met_N.MassTrans - HetDenitStep1ofHet_NO3_N_NO2_N.MassTrans - HetDenitStep1ofDOM_NO3_N_NO2_N.MassTrans;
NO2_N.FinalMass = NO2_N.InitialMass + HetDenitStep1ofHet_NO3_N_NO2_N.MassTrans + HetDenitStep1ofDOM_NO3_N_NO2_N.MassTrans + AutNitrifStep1_NH4_N_NO2_N.MassTrans - HetAssimNO2_NO2_N_Het_N.MassTrans - AutAssimNO2_NO2_N_Aut_N.MassTrans - MetAssimNO2_NO2_N_Met_N.MassTrans - HetDenitStep2ofHet_NO2_N_N2O_N.MassTrans - HetDenitStep2ofDOM_NO2_N_N2O_N.MassTrans - AutNitrifStep2_NO2_N_NO3_N.MassTrans;
N2O_N.FinalMass = N2O_N.InitialMass + HetDenitStep2ofHet_NO2_N_N2O_N.MassTrans + HetDenitStep2ofDOM_NO2_N_N2O_N.MassTrans - HetDenitStep3ofHet_N2O_N_N2_N.MassTrans - HetDenitStep3ofDOM_N2O_N_N2_N.MassTrans;
O2_O.FinalMass = O2_O.InitialMass - HetAerobicofHet_O2_O_Ox_O.MassTrans - HetAerobicofDOM_O2_O_Ox_O.MassTrans - AutNitrifStep1_O2_O_Ox_O.MassTrans - AutNitrifStep2_O2_O_Ox_O.MassTrans - MetMethaneOxid_O2_O_Ox_O.MassTrans;
SO4_S.FinalMass = SO4_S.InitialMass - HetSulfateRedofHet_SO4_S_HS_S.MassTrans - HetSulfateRedofDOM_SO4_S_HS_S.MassTrans;
CO2_C.FinalMass = CO2_C.InitialMass + HetAerobicofHet_Het_C_CO2_C.MassTrans + HetAerobicofDOM_DOM_C_CO2_C.MassTrans + HetDenitStep1ofHet_Het_C_CO2_C.MassTrans + HetDenitStep1ofDOM_DOM_C_CO2_C.MassTrans + HetDenitStep2ofHet_Het_C_CO2_C.MassTrans + HetDenitStep2ofDOM_DOM_C_CO2_C.MassTrans + HetDenitStep3ofHet_Het_C_CO2_C.MassTrans + HetDenitStep3ofDOM_DOM_C_CO2_C.MassTrans + HetSulfateRedofHet_Het_C_CO2_C.MassTrans + HetSulfateRedofDOM_DOM_C_CO2_C.MassTrans + HetMethanogenesisofHet_Het_C_CO2_C.MassTrans + HetMethanogenesisofDOM_DOM_C_CO2_C.MassTrans + MetMethaneOxid_CH4_C_CO2_C.MassTrans - AutAssimCO2_CO2_C_Aut_C.MassTrans;
N2_N.FinalMass = N2_N.InitialMass + HetDenitStep3ofHet_N2O_N_N2_N.MassTrans + HetDenitStep3ofDOM_N2O_N_N2_N.MassTrans;
HS_S.FinalMass = HS_S.InitialMass + HetSulfateRedofHet_SO4_S_HS_S.MassTrans + HetSulfateRedofDOM_SO4_S_HS_S.MassTrans;
Ox_O.FinalMass = Ox_O.InitialMass + HetAerobicofHet_O2_O_Ox_O.MassTrans + HetAerobicofDOM_O2_O_Ox_O.MassTrans + AutNitrifStep1_O2_O_Ox_O.MassTrans + AutNitrifStep2_O2_O_Ox_O.MassTrans + MetMethaneOxid_O2_O_Ox_O.MassTrans;
Het_C.InitialMass >= HetAerobicofHet_Het_C_CO2_C.MassTrans + HetDenitStep1ofHet_Het_C_CO2_C.MassTrans + HetDenitStep2ofHet_Het_C_CO2_C.MassTrans + HetDenitStep3ofHet_Het_C_CO2_C.MassTrans + HetSulfateRedofHet_Het_C_CO2_C.MassTrans + HetMethanogenesisofHet_Het_C_CO2_C.MassTrans + HetMethanogenesisofHet_Het_C_CH4_C.MassTrans;
Het_N.InitialMass >= HetAerobicofHet_Het_N_NH4_N.MassTrans + HetDenitStep1ofHet_Het_N_NH4_N.MassTrans + HetDenitStep2ofHet_Het_N_NH4_N.MassTrans + HetDenitStep3ofHet_Het_N_NH4_N.MassTrans + HetSulfateRedofHet_Het_N_NH4_N.MassTrans + HetMethanogenesisofHet_Het_N_NH4_N.MassTrans;
DOM_C.InitialMass >= HetAssimDOM_DOM_C_Het_C.MassTrans + HetAerobicofDOM_DOM_C_CO2_C.MassTrans + HetDenitStep1ofDOM_DOM_C_CO2_C.MassTrans + HetDenitStep2ofDOM_DOM_C_CO2_C.MassTrans + HetDenitStep3ofDOM_DOM_C_CO2_C.MassTrans + HetSulfateRedofDOM_DOM_C_CO2_C.MassTrans + HetMethanogenesisofDOM_DOM_C_CO2_C.MassTrans + HetMethanogenesisofDOM_DOM_C_CH4_C.MassTrans;
DOM_N.InitialMass >= HetAssimDOM_DOM_N_Het_N.MassTrans + HetAerobicofDOM_DOM_N_NH4_N.MassTrans + HetDenitStep1ofDOM_DOM_N_NH4_N.MassTrans + HetDenitStep2ofDOM_DOM_N_NH4_N.MassTrans + HetDenitStep3ofDOM_DOM_N_NH4_N.MassTrans + HetSulfateRedofDOM_DOM_N_NH4_N.MassTrans + HetMethanogenesisofDOM_DOM_N_NH4_N.MassTrans;
CH4_C.InitialMass >= MetAssimCH4_CH4_C_Met_C.MassTrans + MetMethaneOxid_CH4_C_CO2_C.MassTrans;
NH4_N.InitialMass >= AutAssimNH4_NH4_N_Aut_N.MassTrans + MetAssimNH4_NH4_N_Met_N.MassTrans + AutNitrifStep1_NH4_N_NO2_N.MassTrans;
NO3_N.InitialMass >= HetAssimNO3_NO3_N_Het_N.MassTrans + AutAssimNO3_NO3_N_Aut_N.MassTrans + MetAssimNO3_NO3_N_Met_N.MassTrans + HetDenitStep1ofHet_NO3_N_NO2_N.MassTrans + HetDenitStep1ofDOM_NO3_N_NO2_N.MassTrans;
NO2_N.InitialMass >= HetAssimNO2_NO2_N_Het_N.MassTrans + AutAssimNO2_NO2_N_Aut_N.MassTrans + MetAssimNO2_NO2_N_Met_N.MassTrans + HetDenitStep2ofHet_NO2_N_N2O_N.MassTrans + HetDenitStep2ofDOM_NO2_N_N2O_N.MassTrans + AutNitrifStep2_NO2_N_NO3_N.MassTrans;
N2O_N.InitialMass >= HetDenitStep3ofHet_N2O_N_N2_N.MassTrans + HetDenitStep3ofDOM_N2O_N_N2_N.MassTrans;
O2_O.InitialMass >= HetAerobicofHet_O2_O_Ox_O.MassTrans + HetAerobicofDOM_O2_O_Ox_O.MassTrans + AutNitrifStep1_O2_O_Ox_O.MassTrans + AutNitrifStep2_O2_O_Ox_O.MassTrans + MetMethaneOxid_O2_O_Ox_O.MassTrans;
SO4_S.InitialMass >= HetSulfateRedofHet_SO4_S_HS_S.MassTrans + HetSulfateRedofDOM_SO4_S_HS_S.MassTrans;
